15
5
5	5	5	5	5	5	5	5	5	5	5	5	5	5	5	
0	21	0	0	0	
0	0	34	0	0	
0	0	95	0	95	
53	53	0	0	0	
55	0	0	55	0	
0	0	0	52	0	
0	16	0	16	16	
71	71	0	0	0	
0	26	26	0	26	
21	0	0	0	21	
0	31	31	0	0	
12	0	0	12	0	
42	42	0	0	0	
0	0	0	39	0	
0	0	0	98	98	
0	0	0	77	0	
0	77	0	0	0	
79	0	0	79	79	
55	0	0	55	0	
0	0	66	66	66	
0	0	0	0	37	
0	0	34	34	34	
64	0	64	0	0	
0	19	0	0	0	
83	0	0	0	0	
0	43	43	0	43	
0	54	0	54	54	
92	92	0	0	92	
0	0	0	62	0	
0	79	79	0	79	
93	0	93	0	0	
0	0	0	69	0	
0	87	87	87	0	
0	0	77	0	77	
0	0	87	0	0	
60	0	0	0	0	
41	41	0	0	0	
38	0	38	0	0	
0	83	0	0	83	
0	0	0	24	0	
0	0	98	98	0	
17	0	0	17	0	
0	0	0	0	25	
44	0	0	0	0	
0	49	0	49	0	
96	0	96	0	0	
77	0	0	0	77	
0	79	0	79	0	
75	75	0	75	0	
0	43	43	0	43	
0	0	0	0	28	
0	0	35	0	0	
95	0	0	0	0	
0	0	0	76	76	
0	7	0	0	0	
61	0	0	0	61	
0	0	10	0	10	
95	95	95	0	0	
0	9	9	0	0	
0	35	0	35	0	
0	59	0	59	59	
16	0	0	16	0	
0	91	0	0	0	
0	0	59	0	0	
46	0	46	0	46	
43	0	0	0	43	
0	52	0	0	0	
28	28	0	0	0	
27	0	27	0	27	
0	50	0	50	0	
87	0	87	0	0	
0	45	0	0	0	
0	0	39	0	0	
9	9	0	0	9	
0	0	0	41	0	